Problem:    branch_and_bound3
Rows:       7
Columns:    2
Non-zeros:  10
Status:     OPTIMAL
Objective:  Z = 12 (MAXimum)

   No.   Row name   St   Activity     Lower bound   Upper bound    Marginal
------ ------------ -- ------------- ------------- ------------- -------------
     1 Z            B             12                             
     2 r1           B              7                          12 
     3 r2           B             22                          24 
     4 PL1a         B              1                           2 
     5 PL2b         B              3             3               
     6 PL3a         NU             1                           1             3 
     7 PL4a         NU             3                           3             3 

   No. Column name  St   Activity     Lower bound   Upper bound    Marginal
------ ------------ -- ------------- ------------- ------------- -------------
     1 x1           B              3             0               
     2 x2           B              1             0               

Karush-Kuhn-Tucker optimality conditions:

KKT.PE: max.abs.err = 0.00e+00 on row 0
        max.rel.err = 0.00e+00 on row 0
        High quality

KKT.PB: max.abs.err = 0.00e+00 on row 0
        max.rel.err = 0.00e+00 on row 0
        High quality

KKT.DE: max.abs.err = 0.00e+00 on column 0
        max.rel.err = 0.00e+00 on column 0
        High quality

KKT.DB: max.abs.err = 0.00e+00 on row 0
        max.rel.err = 0.00e+00 on row 0
        High quality

End of output
